p tw 620 9301 7 
1 8 
1 211 
2 9 
2 10 
2 212 
3 7 
3 10 
3 271 
4 8 
4 9 
4 272 
5 7 
5 9 
5 421 
6 8 
6 10 
6 422 
11 17 
11 18 
11 121 
12 19 
12 20 
12 122 
13 17 
13 20 
13 151 
14 18 
14 19 
14 152 
15 17 
15 19 
15 361 
16 18 
16 20 
16 362 
21 27 
21 28 
21 161 
22 29 
22 30 
22 162 
23 27 
23 30 
23 231 
24 28 
24 29 
24 232 
25 27 
25 29 
25 371 
26 28 
26 30 
26 372 
31 37 
31 38 
31 171 
32 39 
32 40 
32 172 
33 37 
33 40 
33 341 
34 38 
34 39 
34 342 
35 37 
35 39 
35 351 
36 38 
36 40 
36 352 
41 47 
41 48 
41 71 
42 49 
42 50 
42 72 
43 47 
43 50 
43 353 
44 48 
44 49 
44 354 
45 47 
45 49 
45 431 
46 48 
46 50 
46 432 
51 57 
51 58 
51 73 
52 59 
52 60 
52 74 
53 57 
53 60 
53 281 
54 58 
54 59 
54 282 
55 57 
55 59 
55 551 
56 58 
56 60 
56 552 
61 67 
61 68 
61 221 
62 69 
62 70 
62 222 
63 67 
63 70 
63 531 
64 68 
64 69 
64 532 
65 67 
65 69 
65 541 
66 68 
66 70 
66 542 
71 77 
71 78 
72 79 
72 80 
73 77 
73 80 
74 78 
74 79 
75 77 
75 79 
75 543 
76 78 
76 80 
76 544 
81 87 
81 88 
81 423 
82 89 
82 90 
82 424 
83 87 
83 90 
83 441 
84 88 
84 89 
84 442 
85 87 
85 89 
85 601 
86 88 
86 90 
86 602 
91 97 
91 98 
91 153 
92 99 
92 100 
92 154 
93 97 
93 100 
93 163 
94 98 
94 99 
94 164 
95 97 
95 99 
95 611 
96 98 
96 100 
96 612 
101 107 
101 108 
101 111 
102 109 
102 110 
102 112 
103 107 
103 110 
103 481 
104 108 
104 109 
104 482 
105 107 
105 109 
105 561 
106 108 
106 110 
106 562 
111 117 
111 118 
112 119 
112 120 
113 117 
113 120 
113 283 
114 118 
114 119 
114 284 
115 117 
115 119 
115 355 
116 118 
116 120 
116 356 
121 127 
121 128 
122 129 
122 130 
123 127 
123 130 
123 201 
124 128 
124 129 
124 202 
125 127 
125 129 
125 581 
126 128 
126 130 
126 582 
131 137 
131 138 
131 251 
132 139 
132 140 
132 252 
133 137 
133 140 
133 261 
134 138 
134 139 
134 262 
135 137 
135 139 
135 401 
136 138 
136 140 
136 402 
141 147 
141 148 
141 273 
142 149 
142 150 
142 274 
143 147 
143 150 
143 343 
144 148 
144 149 
144 344 
145 147 
145 149 
145 571 
146 148 
146 150 
146 572 
151 157 
151 158 
152 159 
152 160 
153 157 
153 160 
154 158 
154 159 
155 157 
155 159 
155 275 
156 158 
156 160 
156 276 
161 167 
161 168 
162 169 
162 170 
163 167 
163 170 
164 168 
164 169 
165 167 
165 169 
165 553 
166 168 
166 170 
166 554 
171 177 
171 178 
172 179 
172 180 
173 177 
173 180 
173 345 
174 178 
174 179 
174 346 
175 177 
175 179 
175 613 
176 178 
176 180 
176 614 
181 187 
181 188 
181 285 
182 189 
182 190 
182 286 
183 187 
183 190 
183 301 
184 188 
184 189 
184 302 
185 187 
185 189 
185 511 
186 188 
186 190 
186 512 
191 197 
191 198 
191 233 
192 199 
192 200 
192 234 
193 197 
193 200 
193 591 
194 198 
194 199 
194 592 
195 197 
195 199 
195 603 
196 198 
196 200 
196 604 
201 207 
201 208 
202 209 
202 210 
203 207 
203 210 
203 381 
204 208 
204 209 
204 382 
205 207 
205 209 
205 491 
206 208 
206 210 
206 492 
211 217 
211 218 
212 219 
212 220 
213 217 
213 220 
213 443 
214 218 
214 219 
214 444 
215 217 
215 219 
215 521 
216 218 
216 220 
216 522 
221 227 
221 228 
222 229 
222 230 
223 227 
223 230 
223 461 
224 228 
224 229 
224 462 
225 227 
225 229 
225 471 
226 228 
226 230 
226 472 
231 237 
231 238 
232 239 
232 240 
233 237 
233 240 
234 238 
234 239 
235 237 
235 239 
235 391 
236 238 
236 240 
236 392 
241 247 
241 248 
241 363 
242 249 
242 250 
242 364 
243 247 
243 250 
243 493 
244 248 
244 249 
244 494 
245 247 
245 249 
245 593 
246 248 
246 250 
246 594 
251 257 
251 258 
252 259 
252 260 
253 257 
253 260 
253 523 
254 258 
254 259 
254 524 
255 257 
255 259 
255 573 
256 258 
256 260 
256 574 
261 267 
261 268 
262 269 
262 270 
263 267 
263 270 
263 501 
264 268 
264 269 
264 502 
265 267 
265 269 
265 563 
266 268 
266 270 
266 564 
271 277 
271 278 
272 279 
272 280 
273 277 
273 280 
274 278 
274 279 
275 277 
275 279 
276 278 
276 280 
281 287 
281 288 
282 289 
282 290 
283 287 
283 290 
284 288 
284 289 
285 287 
285 289 
286 288 
286 290 
291 297 
291 298 
291 411 
292 299 
292 300 
292 412 
293 297 
293 300 
293 583 
294 298 
294 299 
294 584 
295 297 
295 299 
295 595 
296 298 
296 300 
296 596 
301 307 
301 308 
302 309 
302 310 
303 307 
303 310 
303 321 
304 308 
304 309 
304 322 
305 307 
305 309 
305 503 
306 308 
306 310 
306 504 
311 317 
311 318 
311 323 
312 319 
312 320 
312 324 
313 317 
313 320 
313 555 
314 318 
314 319 
314 556 
315 317 
315 319 
315 565 
316 318 
316 320 
316 566 
321 327 
321 328 
322 329 
322 330 
323 327 
323 330 
324 328 
324 329 
325 327 
325 329 
325 413 
326 328 
326 330 
326 414 
331 337 
331 338 
331 403 
332 339 
332 340 
332 404 
333 337 
333 340 
333 425 
334 338 
334 339 
334 426 
335 337 
335 339 
335 495 
336 338 
336 340 
336 496 
341 347 
341 348 
342 349 
342 350 
343 347 
343 350 
344 348 
344 349 
345 347 
345 349 
346 348 
346 350 
351 357 
351 358 
352 359 
352 360 
353 357 
353 360 
354 358 
354 359 
355 357 
355 359 
356 358 
356 360 
361 367 
361 368 
362 369 
362 370 
363 367 
363 370 
364 368 
364 369 
365 367 
365 369 
365 575 
366 368 
366 370 
366 576 
371 377 
371 378 
372 379 
372 380 
373 377 
373 380 
373 393 
374 378 
374 379 
374 394 
375 377 
375 379 
375 451 
376 378 
376 380 
376 452 
381 387 
381 388 
382 389 
382 390 
383 387 
383 390 
383 483 
384 388 
384 389 
384 484 
385 387 
385 389 
385 615 
386 388 
386 390 
386 616 
391 397 
391 398 
392 399 
392 400 
393 397 
393 400 
394 398 
394 399 
395 397 
395 399 
395 463 
396 398 
396 400 
396 464 
401 407 
401 408 
402 409 
402 410 
403 407 
403 410 
404 408 
404 409 
405 407 
405 409 
405 433 
406 408 
406 410 
406 434 
411 417 
411 418 
412 419 
412 420 
413 417 
413 420 
414 418 
414 419 
415 417 
415 419 
415 545 
416 418 
416 420 
416 546 
421 427 
421 428 
422 429 
422 430 
423 427 
423 430 
424 428 
424 429 
425 427 
425 429 
426 428 
426 430 
431 437 
431 438 
432 439 
432 440 
433 437 
433 440 
434 438 
434 439 
435 437 
435 439 
435 485 
436 438 
436 440 
436 486 
441 447 
441 448 
442 449 
442 450 
443 447 
443 450 
444 448 
444 449 
445 447 
445 449 
445 533 
446 448 
446 450 
446 534 
451 457 
451 458 
452 459 
452 460 
453 457 
453 460 
453 513 
454 458 
454 459 
454 514 
455 457 
455 459 
455 535 
456 458 
456 460 
456 536 
461 467 
461 468 
462 469 
462 470 
463 467 
463 470 
464 468 
464 469 
465 467 
465 469 
465 515 
466 468 
466 470 
466 516 
471 477 
471 478 
472 479 
472 480 
473 477 
473 480 
473 585 
474 478 
474 479 
474 586 
475 477 
475 479 
475 605 
476 478 
476 480 
476 606 
481 487 
481 488 
482 489 
482 490 
483 487 
483 490 
484 488 
484 489 
485 487 
485 489 
486 488 
486 490 
491 497 
491 498 
492 499 
492 500 
493 497 
493 500 
494 498 
494 499 
495 497 
495 499 
496 498 
496 500 
501 507 
501 508 
502 509 
502 510 
503 507 
503 510 
504 508 
504 509 
505 507 
505 509 
505 525 
506 508 
506 510 
506 526 
511 517 
511 518 
512 519 
512 520 
513 517 
513 520 
514 518 
514 519 
515 517 
515 519 
516 518 
516 520 
521 527 
521 528 
522 529 
522 530 
523 527 
523 530 
524 528 
524 529 
525 527 
525 529 
526 528 
526 530 
531 537 
531 538 
532 539 
532 540 
533 537 
533 540 
534 538 
534 539 
535 537 
535 539 
536 538 
536 540 
541 547 
541 548 
542 549 
542 550 
543 547 
543 550 
544 548 
544 549 
545 547 
545 549 
546 548 
546 550 
551 557 
551 558 
552 559 
552 560 
553 557 
553 560 
554 558 
554 559 
555 557 
555 559 
556 558 
556 560 
561 567 
561 568 
562 569 
562 570 
563 567 
563 570 
564 568 
564 569 
565 567 
565 569 
566 568 
566 570 
571 577 
571 578 
572 579 
572 580 
573 577 
573 580 
574 578 
574 579 
575 577 
575 579 
576 578 
576 580 
581 587 
581 588 
582 589 
582 590 
583 587 
583 590 
584 588 
584 589 
585 587 
585 589 
586 588 
586 590 
591 597 
591 598 
592 599 
592 600 
593 597 
593 600 
594 598 
594 599 
595 597 
595 599 
596 598 
596 600 
601 607 
601 608 
602 609 
602 610 
603 607 
603 610 
604 608 
604 609 
605 607 
605 609 
606 608 
606 610 
611 617 
611 618 
612 619 
612 620 
613 617 
613 620 
614 618 
614 619 
615 617 
615 619 
616 618 
616 620 
